unknown
(model
; cardinality of BoundSet is 2
(declare-sort BoundSet 0)
; rep: @uc_BoundSet_0
; rep: @uc_BoundSet_1
(declare-sort UnboundSet 0)
(define-fun IsPlayingWith ((BOUND_VARIABLE_358 BoundSet) (BOUND_VARIABLE_359 BoundSet)) Bool true)
(define-fun IsLiftedIntoTheAir ((BOUND_VARIABLE_368 BoundSet)) Bool false)
(define-fun IsWearingNoShirt ((BOUND_VARIABLE_368 BoundSet)) Bool false)
)
sat
(model
; cardinality of BoundSet is 1
(declare-sort BoundSet 0)
; rep: @uc_BoundSet_0
(declare-sort UnboundSet 0)
(define-fun IsPlayingWith ((BOUND_VARIABLE_389 BoundSet) (BOUND_VARIABLE_390 BoundSet)) Bool true)
(define-fun IsLiftedIntoTheAir ((BOUND_VARIABLE_396 BoundSet)) Bool false)
(define-fun IsWearingNoShirt ((BOUND_VARIABLE_396 BoundSet)) Bool false)
)
